37999 41087 
37791 41137 
39824 39845 
37816 41123 
39065 40467 
38567 40827 
36897 41631 
38925 40522 
37174 41497 
37843 41107 
35490 42026 
39092 40451 
36924 41615 
37201 41481 
36430 41780 
36816 41635 
35876 41909 
36052 41869 
35428 42053 
36754 41662 
37365 41477 
35814 41936 
36279 41791 
35990 41896 
36553 41701 
36781 41646 
38259 40983 
36244 41802 
36128 41827 
36168 41816 
36491 41728 
38197 41010 
